sat
(:eliminated-vars              1
 :max-memory                   18.15
 :memory                       18.05
 :nlsat-decisions              1
 :nlsat-irrational-assignments 2
 :nlsat-propagations           8
 :nlsat-stages                 5
 :num-allocs                   43087
 :rlimit-count                 2952
 :time                         0.00)
